; benchmark generated from python API
(set-info :status unknown)
(declare-fun makespan () Int)
(declare-fun 0_y () Int)
(declare-fun 0_x () Int)
(declare-fun 1_y () Int)
(declare-fun 1_x () Int)
(declare-fun 2_y () Int)
(declare-fun 2_x () Int)
(declare-fun 3_y () Int)
(declare-fun 3_x () Int)
(declare-fun 4_y () Int)
(declare-fun 4_x () Int)
(declare-fun 5_y () Int)
(declare-fun 5_x () Int)
(declare-fun 6_y () Int)
(declare-fun 6_x () Int)
(declare-fun 7_y () Int)
(declare-fun 7_x () Int)
(declare-fun 8_y () Int)
(declare-fun 8_x () Int)
(assert
 (>= makespan 14))
(assert
 (<= makespan 19))
(assert
 (let ((?x123195 (+ 0_y 3)))
 (<= ?x123195 makespan)))
(assert
 (let ((?x123196 (+ 0_x 3)))
 (<= ?x123196 14)))
(assert
 (>= 0_x 0))
(assert
 (<= 0_y 16))
(assert
 (>= 0_y 0))
(assert
 (let ((?x123243 (+ 1_y 4)))
 (<= ?x123243 makespan)))
(assert
 (let ((?x123244 (+ 1_x 3)))
 (<= ?x123244 14)))
(assert
 (>= 1_x 0))
(assert
 (<= 1_y 15))
(assert
 (>= 1_y 0))
(assert
 (let ((?x123270 (+ 2_y 5)))
 (<= ?x123270 makespan)))
(assert
 (let ((?x123272 (+ 2_x 3)))
 (<= ?x123272 14)))
(assert
 (>= 2_x 0))
(assert
 (<= 2_y 14))
(assert
 (>= 2_y 0))
(assert
 (let ((?x124370 (+ 3_y 6)))
 (<= ?x124370 makespan)))
(assert
 (let ((?x123317 (+ 3_x 3)))
 (<= ?x123317 14)))
(assert
 (>= 3_x 0))
(assert
 (<= 3_y 13))
(assert
 (>= 3_y 0))
(assert
 (let ((?x123344 (+ 4_y 7)))
 (<= ?x123344 makespan)))
(assert
 (let ((?x123364 (+ 4_x 3)))
 (<= ?x123364 14)))
(assert
 (>= 4_x 0))
(assert
 (<= 4_y 12))
(assert
 (>= 4_y 0))
(assert
 (let ((?x123391 (+ 5_y 8)))
 (<= ?x123391 makespan)))
(assert
 (let ((?x5320 (+ 5_x 3)))
 (<= ?x5320 14)))
(assert
 (>= 5_x 0))
(assert
 (<= 5_y 11))
(assert
 (>= 5_y 0))
(assert
 (let ((?x123430 (+ 6_y 9)))
 (<= ?x123430 makespan)))
(assert
 (let ((?x123432 (+ 6_x 3)))
 (<= ?x123432 14)))
(assert
 (>= 6_x 0))
(assert
 (<= 6_y 10))
(assert
 (>= 6_y 0))
(assert
 (let ((?x123477 (+ 7_y 4)))
 (<= ?x123477 makespan)))
(assert
 (let ((?x123479 (+ 7_x 5)))
 (<= ?x123479 14)))
(assert
 (>= 7_x 0))
(assert
 (<= 7_y 15))
(assert
 (>= 7_y 0))
(assert
 (let ((?x123525 (+ 8_y 10)))
 (<= ?x123525 makespan)))
(assert
 (let ((?x123527 (+ 8_x 5)))
 (<= ?x123527 14)))
(assert
 (>= 8_x 0))
(assert
 (<= 8_y 9))
(assert
 (>= 8_y 0))
(assert
 (or (<= (+ 0_x 3) 1_x) (<= (+ 0_y 3) 1_y) (<= (+ 1_x 3) 0_x) (<= (+ 1_y 4) 0_y)))
(assert
 (or (<= (+ 0_x 3) 2_x) (<= (+ 0_y 3) 2_y) (<= (+ 2_x 3) 0_x) (<= (+ 2_y 5) 0_y)))
(assert
 (or (<= (+ 0_x 3) 3_x) (<= (+ 0_y 3) 3_y) (<= (+ 3_x 3) 0_x) (<= (+ 3_y 6) 0_y)))
(assert
 (or (<= (+ 0_x 3) 4_x) (<= (+ 0_y 3) 4_y) (<= (+ 4_x 3) 0_x) (<= (+ 4_y 7) 0_y)))
(assert
 (or (<= (+ 0_x 3) 5_x) (<= (+ 0_y 3) 5_y) (<= (+ 5_x 3) 0_x) (<= (+ 5_y 8) 0_y)))
(assert
 (or (<= (+ 0_x 3) 6_x) (<= (+ 0_y 3) 6_y) (<= (+ 6_x 3) 0_x) (<= (+ 6_y 9) 0_y)))
(assert
 (or (<= (+ 0_x 3) 7_x) (<= (+ 0_y 3) 7_y) (<= (+ 7_x 5) 0_x) (<= (+ 7_y 4) 0_y)))
(assert
 (or (<= (+ 0_x 3) 8_x) (<= (+ 0_y 3) 8_y) (<= (+ 8_x 5) 0_x) (<= (+ 8_y 10) 0_y)))
(assert
 (or (<= (+ 1_x 3) 2_x) (<= (+ 1_y 4) 2_y) (<= (+ 2_x 3) 1_x) (<= (+ 2_y 5) 1_y)))
(assert
 (or (<= (+ 1_x 3) 3_x) (<= (+ 1_y 4) 3_y) (<= (+ 3_x 3) 1_x) (<= (+ 3_y 6) 1_y)))
(assert
 (or (<= (+ 1_x 3) 4_x) (<= (+ 1_y 4) 4_y) (<= (+ 4_x 3) 1_x) (<= (+ 4_y 7) 1_y)))
(assert
 (or (<= (+ 1_x 3) 5_x) (<= (+ 1_y 4) 5_y) (<= (+ 5_x 3) 1_x) (<= (+ 5_y 8) 1_y)))
(assert
 (or (<= (+ 1_x 3) 6_x) (<= (+ 1_y 4) 6_y) (<= (+ 6_x 3) 1_x) (<= (+ 6_y 9) 1_y)))
(assert
 (or (<= (+ 1_x 3) 7_x) (<= (+ 1_y 4) 7_y) (<= (+ 7_x 5) 1_x) (<= (+ 7_y 4) 1_y)))
(assert
 (or (<= (+ 1_x 3) 8_x) (<= (+ 1_y 4) 8_y) (<= (+ 8_x 5) 1_x) (<= (+ 8_y 10) 1_y)))
(assert
 (or (<= (+ 2_x 3) 3_x) (<= (+ 2_y 5) 3_y) (<= (+ 3_x 3) 2_x) (<= (+ 3_y 6) 2_y)))
(assert
 (or (<= (+ 2_x 3) 4_x) (<= (+ 2_y 5) 4_y) (<= (+ 4_x 3) 2_x) (<= (+ 4_y 7) 2_y)))
(assert
 (or (<= (+ 2_x 3) 5_x) (<= (+ 2_y 5) 5_y) (<= (+ 5_x 3) 2_x) (<= (+ 5_y 8) 2_y)))
(assert
 (or (<= (+ 2_x 3) 6_x) (<= (+ 2_y 5) 6_y) (<= (+ 6_x 3) 2_x) (<= (+ 6_y 9) 2_y)))
(assert
 (or (<= (+ 2_x 3) 7_x) (<= (+ 2_y 5) 7_y) (<= (+ 7_x 5) 2_x) (<= (+ 7_y 4) 2_y)))
(assert
 (or (<= (+ 2_x 3) 8_x) (<= (+ 2_y 5) 8_y) (<= (+ 8_x 5) 2_x) (<= (+ 8_y 10) 2_y)))
(assert
 (or (<= (+ 3_x 3) 4_x) (<= (+ 3_y 6) 4_y) (<= (+ 4_x 3) 3_x) (<= (+ 4_y 7) 3_y)))
(assert
 (or (<= (+ 3_x 3) 5_x) (<= (+ 3_y 6) 5_y) (<= (+ 5_x 3) 3_x) (<= (+ 5_y 8) 3_y)))
(assert
 (or (<= (+ 3_x 3) 6_x) (<= (+ 3_y 6) 6_y) (<= (+ 6_x 3) 3_x) (<= (+ 6_y 9) 3_y)))
(assert
 (or (<= (+ 3_x 3) 7_x) (<= (+ 3_y 6) 7_y) (<= (+ 7_x 5) 3_x) (<= (+ 7_y 4) 3_y)))
(assert
 (or (<= (+ 3_x 3) 8_x) (<= (+ 3_y 6) 8_y) (<= (+ 8_x 5) 3_x) (<= (+ 8_y 10) 3_y)))
(assert
 (or (<= (+ 4_x 3) 5_x) (<= (+ 4_y 7) 5_y) (<= (+ 5_x 3) 4_x) (<= (+ 5_y 8) 4_y)))
(assert
 (or (<= (+ 4_x 3) 6_x) (<= (+ 4_y 7) 6_y) (<= (+ 6_x 3) 4_x) (<= (+ 6_y 9) 4_y)))
(assert
 (or (<= (+ 4_x 3) 7_x) (<= (+ 4_y 7) 7_y) (<= (+ 7_x 5) 4_x) (<= (+ 7_y 4) 4_y)))
(assert
 (or (<= (+ 4_x 3) 8_x) (<= (+ 4_y 7) 8_y) (<= (+ 8_x 5) 4_x) (<= (+ 8_y 10) 4_y)))
(assert
 (or (<= (+ 5_x 3) 6_x) (<= (+ 5_y 8) 6_y) (<= (+ 6_x 3) 5_x) (<= (+ 6_y 9) 5_y)))
(assert
 (or (<= (+ 5_x 3) 7_x) (<= (+ 5_y 8) 7_y) (<= (+ 7_x 5) 5_x) (<= (+ 7_y 4) 5_y)))
(assert
 (or (<= (+ 5_x 3) 8_x) (<= (+ 5_y 8) 8_y) (<= (+ 8_x 5) 5_x) (<= (+ 8_y 10) 5_y)))
(assert
 (or (<= (+ 6_x 3) 7_x) (<= (+ 6_y 9) 7_y) (<= (+ 7_x 5) 6_x) (<= (+ 7_y 4) 6_y)))
(assert
 (or (<= (+ 6_x 3) 8_x) (<= (+ 6_y 9) 8_y) (<= (+ 8_x 5) 6_x) (<= (+ 8_y 10) 6_y)))
(assert
 (or (<= (+ 7_x 5) 8_x) (<= (+ 7_y 4) 8_y) (<= (+ 8_x 5) 7_x) (<= (+ 8_y 10) 7_y)))
(assert
 (let ((?x125196 (+ (ite (and (<= 0_y 0) (>= (+ 0_y 3) 0)) 3 0))))
 (<= ?x125196 14)))
(assert
 (let ((?x125146 (+ (ite (and (<= 1_y 0) (>= (+ 1_y 4) 0)) 3 0))))
 (<= ?x125146 14)))
(assert
 (let ((?x125067 (+ (ite (and (<= 2_y 0) (>= (+ 2_y 5) 0)) 3 0))))
 (<= ?x125067 14)))
(assert
 (let ((?x125010 (+ (ite (and (<= 3_y 0) (>= (+ 3_y 6) 0)) 3 0))))
 (<= ?x125010 14)))
(assert
 (let ((?x124944 (+ (ite (and (<= 4_y 0) (>= (+ 4_y 7) 0)) 3 0))))
 (<= ?x124944 14)))
(assert
 (let ((?x124879 (+ (ite (and (<= 5_y 0) (>= (+ 5_y 8) 0)) 3 0))))
 (<= ?x124879 14)))
(assert
 (let ((?x124807 (+ (ite (and (<= 6_y 0) (>= (+ 6_y 9) 0)) 3 0))))
 (<= ?x124807 14)))
(assert
 (let ((?x124758 (+ (ite (and (<= 7_y 0) (>= (+ 7_y 4) 0)) 5 0))))
 (<= ?x124758 14)))
(assert
 (let ((?x124678 (+ (ite (and (<= 8_y 0) (>= (+ 8_y 10) 0)) 5 0))))
 (<= ?x124678 14)))
(assert
 (let ((?x124657 (+ (ite (and (<= 0_y 1) (>= (+ 0_y 3) 1)) 3 0))))
 (<= ?x124657 14)))
(assert
 (let ((?x124528 (+ (ite (and (<= 1_y 1) (>= (+ 1_y 4) 1)) 3 0))))
 (<= ?x124528 14)))
(assert
 (let ((?x124446 (+ (ite (and (<= 2_y 1) (>= (+ 2_y 5) 1)) 3 0))))
 (<= ?x124446 14)))
(assert
 (let ((?x124392 (+ (ite (and (<= 3_y 1) (>= (+ 3_y 6) 1)) 3 0))))
 (<= ?x124392 14)))
(assert
 (let ((?x128552 (+ (ite (and (<= 4_y 1) (>= (+ 4_y 7) 1)) 3 0))))
 (<= ?x128552 14)))
(assert
 (let ((?x124647 (+ (ite (and (<= 5_y 1) (>= (+ 5_y 8) 1)) 3 0))))
 (<= ?x124647 14)))
(assert
 (let ((?x127299 (+ (ite (and (<= 6_y 1) (>= (+ 6_y 9) 1)) 3 0))))
 (<= ?x127299 14)))
(assert
 (let ((?x126820 (+ (ite (and (<= 7_y 1) (>= (+ 7_y 4) 1)) 5 0))))
 (<= ?x126820 14)))
(assert
 (let ((?x126799 (+ (ite (and (<= 8_y 1) (>= (+ 8_y 10) 1)) 5 0))))
 (<= ?x126799 14)))
(assert
 (let ((?x126893 (+ (ite (and (<= 0_y 2) (>= (+ 0_y 3) 2)) 3 0))))
 (<= ?x126893 14)))
(assert
 (let ((?x128307 (+ (ite (and (<= 1_y 2) (>= (+ 1_y 4) 2)) 3 0))))
 (<= ?x128307 14)))
(assert
 (let ((?x128666 (+ (ite (and (<= 2_y 2) (>= (+ 2_y 5) 2)) 3 0))))
 (<= ?x128666 14)))
(assert
 (let ((?x128579 (+ (ite (and (<= 3_y 2) (>= (+ 3_y 6) 2)) 3 0))))
 (<= ?x128579 14)))
(assert
 (let ((?x127583 (+ (ite (and (<= 4_y 2) (>= (+ 4_y 7) 2)) 3 0))))
 (<= ?x127583 14)))
(assert
 (let ((?x128127 (+ (ite (and (<= 5_y 2) (>= (+ 5_y 8) 2)) 3 0))))
 (<= ?x128127 14)))
(assert
 (let ((?x126738 (+ (ite (and (<= 6_y 2) (>= (+ 6_y 9) 2)) 3 0))))
 (<= ?x126738 14)))
(assert
 (let ((?x127485 (+ (ite (and (<= 7_y 2) (>= (+ 7_y 4) 2)) 5 0))))
 (<= ?x127485 14)))
(assert
 (let ((?x127918 (+ (ite (and (<= 8_y 2) (>= (+ 8_y 10) 2)) 5 0))))
 (<= ?x127918 14)))
(assert
 (let ((?x127072 (+ (ite (and (<= 0_y 3) (>= (+ 0_y 3) 3)) 3 0))))
 (<= ?x127072 14)))
(assert
 (let ((?x126576 (+ (ite (and (<= 1_y 3) (>= (+ 1_y 4) 3)) 3 0))))
 (<= ?x126576 14)))
(assert
 (let ((?x127815 (+ (ite (and (<= 2_y 3) (>= (+ 2_y 5) 3)) 3 0))))
 (<= ?x127815 14)))
(assert
 (let ((?x127109 (+ (ite (and (<= 3_y 3) (>= (+ 3_y 6) 3)) 3 0))))
 (<= ?x127109 14)))
(assert
 (let ((?x128115 (+ (ite (and (<= 4_y 3) (>= (+ 4_y 7) 3)) 3 0))))
 (<= ?x128115 14)))
(assert
 (let ((?x29045 (+ (ite (and (<= 5_y 3) (>= (+ 5_y 8) 3)) 3 0))))
 (<= ?x29045 14)))
(assert
 (let ((?x124656 (+ (ite (and (<= 6_y 3) (>= (+ 6_y 9) 3)) 3 0))))
 (<= ?x124656 14)))
(assert
 (let ((?x127860 (+ (ite (and (<= 7_y 3) (>= (+ 7_y 4) 3)) 5 0))))
 (<= ?x127860 14)))
(assert
 (let ((?x128698 (+ (ite (and (<= 8_y 3) (>= (+ 8_y 10) 3)) 5 0))))
 (<= ?x128698 14)))
(assert
 (let ((?x129158 (+ (ite (and (<= 0_y 4) (>= (+ 0_y 3) 4)) 3 0))))
 (<= ?x129158 14)))
(assert
 (let ((?x16613 (+ (ite (and (<= 1_y 4) (>= (+ 1_y 4) 4)) 3 0))))
 (<= ?x16613 14)))
(assert
 (let ((?x127327 (+ (ite (and (<= 2_y 4) (>= (+ 2_y 5) 4)) 3 0))))
 (<= ?x127327 14)))
(assert
 (let ((?x128054 (+ (ite (and (<= 3_y 4) (>= (+ 3_y 6) 4)) 3 0))))
 (<= ?x128054 14)))
(assert
 (let ((?x127130 (+ (ite (and (<= 4_y 4) (>= (+ 4_y 7) 4)) 3 0))))
 (<= ?x127130 14)))
(assert
 (let ((?x18296 (+ (ite (and (<= 5_y 4) (>= (+ 5_y 8) 4)) 3 0))))
 (<= ?x18296 14)))
(assert
 (let ((?x126699 (+ (ite (and (<= 6_y 4) (>= (+ 6_y 9) 4)) 3 0))))
 (<= ?x126699 14)))
(assert
 (let ((?x127046 (+ (ite (and (<= 7_y 4) (>= (+ 7_y 4) 4)) 5 0))))
 (<= ?x127046 14)))
(assert
 (let ((?x128607 (+ (ite (and (<= 8_y 4) (>= (+ 8_y 10) 4)) 5 0))))
 (<= ?x128607 14)))
(assert
 (let ((?x127742 (+ (ite (and (<= 0_y 5) (>= (+ 0_y 3) 5)) 3 0))))
 (<= ?x127742 14)))
(assert
 (let ((?x127401 (+ (ite (and (<= 1_y 5) (>= (+ 1_y 4) 5)) 3 0))))
 (<= ?x127401 14)))
(assert
 (let ((?x127037 (+ (ite (and (<= 2_y 5) (>= (+ 2_y 5) 5)) 3 0))))
 (<= ?x127037 14)))
(assert
 (let ((?x124508 (+ (ite (and (<= 3_y 5) (>= (+ 3_y 6) 5)) 3 0))))
 (<= ?x124508 14)))
(assert
 (let ((?x129397 (+ (ite (and (<= 4_y 5) (>= (+ 4_y 7) 5)) 3 0))))
 (<= ?x129397 14)))
(assert
 (let ((?x23637 (+ (ite (and (<= 5_y 5) (>= (+ 5_y 8) 5)) 3 0))))
 (<= ?x23637 14)))
(assert
 (let ((?x27432 (+ (ite (and (<= 6_y 5) (>= (+ 6_y 9) 5)) 3 0))))
 (<= ?x27432 14)))
(assert
 (let ((?x129194 (+ (ite (and (<= 7_y 5) (>= (+ 7_y 4) 5)) 5 0))))
 (<= ?x129194 14)))
(assert
 (let ((?x129169 (+ (ite (and (<= 8_y 5) (>= (+ 8_y 10) 5)) 5 0))))
 (<= ?x129169 14)))
(assert
 (let ((?x129097 (+ (ite (and (<= 0_y 6) (>= (+ 0_y 3) 6)) 3 0))))
 (<= ?x129097 14)))
(assert
 (let ((?x129070 (+ (ite (and (<= 1_y 6) (>= (+ 1_y 4) 6)) 3 0))))
 (<= ?x129070 14)))
(assert
 (let ((?x29924 (+ (ite (and (<= 2_y 6) (>= (+ 2_y 5) 6)) 3 0))))
 (<= ?x29924 14)))
(assert
 (let ((?x128964 (+ (ite (and (<= 3_y 6) (>= (+ 3_y 6) 6)) 3 0))))
 (<= ?x128964 14)))
(assert
 (let ((?x128954 (+ (ite (and (<= 4_y 6) (>= (+ 4_y 7) 6)) 3 0))))
 (<= ?x128954 14)))
(assert
 (let ((?x128881 (+ (ite (and (<= 5_y 6) (>= (+ 5_y 8) 6)) 3 0))))
 (<= ?x128881 14)))
(assert
 (let ((?x11938 (+ (ite (and (<= 6_y 6) (>= (+ 6_y 9) 6)) 3 0))))
 (<= ?x11938 14)))
(assert
 (let ((?x128759 (+ (ite (and (<= 7_y 6) (>= (+ 7_y 4) 6)) 5 0))))
 (<= ?x128759 14)))
(assert
 (let ((?x128749 (+ (ite (and (<= 8_y 6) (>= (+ 8_y 10) 6)) 5 0))))
 (<= ?x128749 14)))
(assert
 (let ((?x128713 (+ (ite (and (<= 0_y 7) (>= (+ 0_y 3) 7)) 3 0))))
 (<= ?x128713 14)))
(assert
 (let ((?x128701 (+ (ite (and (<= 1_y 7) (>= (+ 1_y 4) 7)) 3 0))))
 (<= ?x128701 14)))
(assert
 (let ((?x128627 (+ (ite (and (<= 2_y 7) (>= (+ 2_y 5) 7)) 3 0))))
 (<= ?x128627 14)))
(assert
 (let ((?x128617 (+ (ite (and (<= 3_y 7) (>= (+ 3_y 6) 7)) 3 0))))
 (<= ?x128617 14)))
(assert
 (let ((?x128574 (+ (ite (and (<= 4_y 7) (>= (+ 4_y 7) 7)) 3 0))))
 (<= ?x128574 14)))
(assert
 (let ((?x128564 (+ (ite (and (<= 5_y 7) (>= (+ 5_y 8) 7)) 3 0))))
 (<= ?x128564 14)))
(assert
 (let ((?x128498 (+ (ite (and (<= 6_y 7) (>= (+ 6_y 9) 7)) 3 0))))
 (<= ?x128498 14)))
(assert
 (let ((?x128476 (+ (ite (and (<= 7_y 7) (>= (+ 7_y 4) 7)) 5 0))))
 (<= ?x128476 14)))
(assert
 (let ((?x128429 (+ (ite (and (<= 8_y 7) (>= (+ 8_y 10) 7)) 5 0))))
 (<= ?x128429 14)))
(assert
 (let ((?x128402 (+ (ite (and (<= 0_y 8) (>= (+ 0_y 3) 8)) 3 0))))
 (<= ?x128402 14)))
(assert
 (let ((?x128332 (+ (ite (and (<= 1_y 8) (>= (+ 1_y 4) 8)) 3 0))))
 (<= ?x128332 14)))
(assert
 (let ((?x128323 (+ (ite (and (<= 2_y 8) (>= (+ 2_y 5) 8)) 3 0))))
 (<= ?x128323 14)))
(assert
 (let ((?x128275 (+ (ite (and (<= 3_y 8) (>= (+ 3_y 6) 8)) 3 0))))
 (<= ?x128275 14)))
(assert
 (let ((?x128247 (+ (ite (and (<= 4_y 8) (>= (+ 4_y 7) 8)) 3 0))))
 (<= ?x128247 14)))
(assert
 (let ((?x128177 (+ (ite (and (<= 5_y 8) (>= (+ 5_y 8) 8)) 3 0))))
 (<= ?x128177 14)))
(assert
 (let ((?x128150 (+ (ite (and (<= 6_y 8) (>= (+ 6_y 9) 8)) 3 0))))
 (<= ?x128150 14)))
(assert
 (let ((?x128119 (+ (ite (and (<= 7_y 8) (>= (+ 7_y 4) 8)) 5 0))))
 (<= ?x128119 14)))
(assert
 (let ((?x128093 (+ (ite (and (<= 8_y 8) (>= (+ 8_y 10) 8)) 5 0))))
 (<= ?x128093 14)))
(assert
 (let ((?x128031 (+ (ite (and (<= 0_y 9) (>= (+ 0_y 3) 9)) 3 0))))
 (<= ?x128031 14)))
(assert
 (let ((?x128042 (+ (ite (and (<= 1_y 9) (>= (+ 1_y 4) 9)) 3 0))))
 (<= ?x128042 14)))
(assert
 (let ((?x127956 (+ (ite (and (<= 2_y 9) (>= (+ 2_y 5) 9)) 3 0))))
 (<= ?x127956 14)))
(assert
 (let ((?x127930 (+ (ite (and (<= 3_y 9) (>= (+ 3_y 6) 9)) 3 0))))
 (<= ?x127930 14)))
(assert
 (let ((?x127898 (+ (ite (and (<= 4_y 9) (>= (+ 4_y 7) 9)) 3 0))))
 (<= ?x127898 14)))
(assert
 (let ((?x127873 (+ (ite (and (<= 5_y 9) (>= (+ 5_y 8) 9)) 3 0))))
 (<= ?x127873 14)))
(assert
 (let ((?x127803 (+ (ite (and (<= 6_y 9) (>= (+ 6_y 9) 9)) 3 0))))
 (<= ?x127803 14)))
(assert
 (let ((?x127776 (+ (ite (and (<= 7_y 9) (>= (+ 7_y 4) 9)) 5 0))))
 (<= ?x127776 14)))
(assert
 (let ((?x127766 (+ (ite (and (<= 8_y 9) (>= (+ 8_y 10) 9)) 5 0))))
 (<= ?x127766 14)))
(assert
 (let ((?x127706 (+ (ite (and (<= 0_y 10) (>= (+ 0_y 3) 10)) 3 0))))
 (<= ?x127706 14)))
(assert
 (let ((?x127684 (+ (ite (and (<= 1_y 10) (>= (+ 1_y 4) 10)) 3 0))))
 (<= ?x127684 14)))
(assert
 (let ((?x127637 (+ (ite (and (<= 2_y 10) (>= (+ 2_y 5) 10)) 3 0))))
 (<= ?x127637 14)))
(assert
 (let ((?x127610 (+ (ite (and (<= 3_y 10) (>= (+ 3_y 6) 10)) 3 0))))
 (<= ?x127610 14)))
(assert
 (let ((?x127586 (+ (ite (and (<= 4_y 10) (>= (+ 4_y 7) 10)) 3 0))))
 (<= ?x127586 14)))
(assert
 (let ((?x127560 (+ (ite (and (<= 5_y 10) (>= (+ 5_y 8) 10)) 3 0))))
 (<= ?x127560 14)))
(assert
 (let ((?x127495 (+ (ite (and (<= 6_y 10) (>= (+ 6_y 9) 10)) 3 0))))
 (<= ?x127495 14)))
(assert
 (let ((?x127470 (+ (ite (and (<= 7_y 10) (>= (+ 7_y 4) 10)) 5 0))))
 (<= ?x127470 14)))
(assert
 (let ((?x127438 (+ (ite (and (<= 8_y 10) (>= (+ 8_y 10) 10)) 5 0))))
 (<= ?x127438 14)))
(assert
 (let ((?x127411 (+ (ite (and (<= 0_y 11) (>= (+ 0_y 3) 11)) 3 0))))
 (<= ?x127411 14)))
(assert
 (let ((?x127402 (+ (ite (and (<= 1_y 11) (>= (+ 1_y 4) 11)) 3 0))))
 (<= ?x127402 14)))
(assert
 (let ((?x127324 (+ (ite (and (<= 2_y 11) (>= (+ 2_y 5) 11)) 3 0))))
 (<= ?x127324 14)))
(assert
 (let ((?x127315 (+ (ite (and (<= 3_y 11) (>= (+ 3_y 6) 11)) 3 0))))
 (<= ?x127315 14)))
(assert
 (let ((?x127265 (+ (ite (and (<= 4_y 11) (>= (+ 4_y 7) 11)) 3 0))))
 (<= ?x127265 14)))
(assert
 (let ((?x127255 (+ (ite (and (<= 5_y 11) (>= (+ 5_y 8) 11)) 3 0))))
 (<= ?x127255 14)))
(assert
 (let ((?x127170 (+ (ite (and (<= 6_y 11) (>= (+ 6_y 9) 11)) 3 0))))
 (<= ?x127170 14)))
(assert
 (let ((?x127143 (+ (ite (and (<= 7_y 11) (>= (+ 7_y 4) 11)) 5 0))))
 (<= ?x127143 14)))
(assert
 (let ((?x127094 (+ (ite (and (<= 8_y 11) (>= (+ 8_y 10) 11)) 5 0))))
 (<= ?x127094 14)))
(assert
 (let ((?x127085 (+ (ite (and (<= 0_y 12) (>= (+ 0_y 3) 12)) 3 0))))
 (<= ?x127085 14)))
(assert
 (let ((?x127015 (+ (ite (and (<= 1_y 12) (>= (+ 1_y 4) 12)) 3 0))))
 (<= ?x127015 14)))
(assert
 (let ((?x126988 (+ (ite (and (<= 2_y 12) (>= (+ 2_y 5) 12)) 3 0))))
 (<= ?x126988 14)))
(assert
 (let ((?x126940 (+ (ite (and (<= 3_y 12) (>= (+ 3_y 6) 12)) 3 0))))
 (<= ?x126940 14)))
(assert
 (let ((?x126929 (+ (ite (and (<= 4_y 12) (>= (+ 4_y 7) 12)) 3 0))))
 (<= ?x126929 14)))
(assert
 (let ((?x126858 (+ (ite (and (<= 5_y 12) (>= (+ 5_y 8) 12)) 3 0))))
 (<= ?x126858 14)))
(assert
 (let ((?x126832 (+ (ite (and (<= 6_y 12) (>= (+ 6_y 9) 12)) 3 0))))
 (<= ?x126832 14)))
(assert
 (let ((?x126761 (+ (ite (and (<= 7_y 12) (>= (+ 7_y 4) 12)) 5 0))))
 (<= ?x126761 14)))
(assert
 (let ((?x129311 (+ (ite (and (<= 8_y 12) (>= (+ 8_y 10) 12)) 5 0))))
 (<= ?x129311 14)))
(assert
 (let ((?x126703 (+ (ite (and (<= 0_y 13) (>= (+ 0_y 3) 13)) 3 0))))
 (<= ?x126703 14)))
(assert
 (let ((?x126677 (+ (ite (and (<= 1_y 13) (>= (+ 1_y 4) 13)) 3 0))))
 (<= ?x126677 14)))
(assert
 (let ((?x126598 (+ (ite (and (<= 2_y 13) (>= (+ 2_y 5) 13)) 3 0))))
 (<= ?x126598 14)))
(assert
 (let ((?x126590 (+ (ite (and (<= 3_y 13) (>= (+ 3_y 6) 13)) 3 0))))
 (<= ?x126590 14)))
(assert
 (let ((?x126602 (+ (ite (and (<= 4_y 13) (>= (+ 4_y 7) 13)) 3 0))))
 (<= ?x126602 14)))
(assert
 (let ((?x126539 (+ (ite (and (<= 5_y 13) (>= (+ 5_y 8) 13)) 3 0))))
 (<= ?x126539 14)))
(assert
 (let ((?x129360 (+ (ite (and (<= 6_y 13) (>= (+ 6_y 9) 13)) 3 0))))
 (<= ?x129360 14)))
(assert
 (let ((?x126447 (+ (ite (and (<= 7_y 13) (>= (+ 7_y 4) 13)) 5 0))))
 (<= ?x126447 14)))
(assert
 (let ((?x126350 (+ (ite (and (<= 8_y 13) (>= (+ 8_y 10) 13)) 5 0))))
 (<= ?x126350 14)))
(assert
 (let ((?x126255 (+ (ite (and (<= 0_y 14) (>= (+ 0_y 3) 14)) 3 0))))
 (<= ?x126255 14)))
(assert
 (let ((?x126198 (+ (ite (and (<= 1_y 14) (>= (+ 1_y 4) 14)) 3 0))))
 (<= ?x126198 14)))
(assert
 (let ((?x126118 (+ (ite (and (<= 2_y 14) (>= (+ 2_y 5) 14)) 3 0))))
 (<= ?x126118 14)))
(assert
 (let ((?x126019 (+ (ite (and (<= 3_y 14) (>= (+ 3_y 6) 14)) 3 0))))
 (<= ?x126019 14)))
(assert
 (let ((?x125886 (+ (ite (and (<= 4_y 14) (>= (+ 4_y 7) 14)) 3 0))))
 (<= ?x125886 14)))
(assert
 (let ((?x125877 (+ (ite (and (<= 5_y 14) (>= (+ 5_y 8) 14)) 3 0))))
 (<= ?x125877 14)))
(assert
 (let ((?x125802 (+ (ite (and (<= 6_y 14) (>= (+ 6_y 9) 14)) 3 0))))
 (<= ?x125802 14)))
(assert
 (let ((?x125703 (+ (ite (and (<= 7_y 14) (>= (+ 7_y 4) 14)) 5 0))))
 (<= ?x125703 14)))
(assert
 (let ((?x125606 (+ (ite (and (<= 8_y 14) (>= (+ 8_y 10) 14)) 5 0))))
 (<= ?x125606 14)))
(assert
 (let ((?x125491 (+ (ite (and (<= 0_y 15) (>= (+ 0_y 3) 15)) 3 0))))
 (<= ?x125491 14)))
(assert
 (let ((?x125464 (+ (ite (and (<= 1_y 15) (>= (+ 1_y 4) 15)) 3 0))))
 (<= ?x125464 14)))
(assert
 (let ((?x125370 (+ (ite (and (<= 2_y 15) (>= (+ 2_y 5) 15)) 3 0))))
 (<= ?x125370 14)))
(assert
 (let ((?x125278 (+ (ite (and (<= 3_y 15) (>= (+ 3_y 6) 15)) 3 0))))
 (<= ?x125278 14)))
(assert
 (let ((?x125160 (+ (ite (and (<= 4_y 15) (>= (+ 4_y 7) 15)) 3 0))))
 (<= ?x125160 14)))
(assert
 (let ((?x125149 (+ (ite (and (<= 5_y 15) (>= (+ 5_y 8) 15)) 3 0))))
 (<= ?x125149 14)))
(assert
 (let ((?x125000 (+ (ite (and (<= 6_y 15) (>= (+ 6_y 9) 15)) 3 0))))
 (<= ?x125000 14)))
(assert
 (let ((?x124891 (+ (ite (and (<= 7_y 15) (>= (+ 7_y 4) 15)) 5 0))))
 (<= ?x124891 14)))
(assert
 (let ((?x12448 (+ (ite (and (<= 8_y 15) (>= (+ 8_y 10) 15)) 5 0))))
 (<= ?x12448 14)))
(assert
 (let ((?x124720 (+ (ite (and (<= 0_y 16) (>= (+ 0_y 3) 16)) 3 0))))
 (<= ?x124720 14)))
(assert
 (let ((?x124648 (+ (ite (and (<= 1_y 16) (>= (+ 1_y 4) 16)) 3 0))))
 (<= ?x124648 14)))
(assert
 (let ((?x124556 (+ (ite (and (<= 2_y 16) (>= (+ 2_y 5) 16)) 3 0))))
 (<= ?x124556 14)))
(assert
 (let ((?x124459 (+ (ite (and (<= 3_y 16) (>= (+ 3_y 6) 16)) 3 0))))
 (<= ?x124459 14)))
(assert
 (let ((?x11109 (+ (ite (and (<= 4_y 16) (>= (+ 4_y 7) 16)) 3 0))))
 (<= ?x11109 14)))
(assert
 (let ((?x126505 (+ (ite (and (<= 5_y 16) (>= (+ 5_y 8) 16)) 3 0))))
 (<= ?x126505 14)))
(assert
 (let ((?x127702 (+ (ite (and (<= 6_y 16) (>= (+ 6_y 9) 16)) 3 0))))
 (<= ?x127702 14)))
(assert
 (let ((?x127649 (+ (ite (and (<= 7_y 16) (>= (+ 7_y 4) 16)) 5 0))))
 (<= ?x127649 14)))
(assert
 (let ((?x128553 (+ (ite (and (<= 8_y 16) (>= (+ 8_y 10) 16)) 5 0))))
 (<= ?x128553 14)))
(assert
 (let ((?x20331 (+ (ite (and (<= 0_y 17) (>= (+ 0_y 3) 17)) 3 0))))
 (<= ?x20331 14)))
(assert
 (let ((?x128554 (+ (ite (and (<= 1_y 17) (>= (+ 1_y 4) 17)) 3 0))))
 (<= ?x128554 14)))
(assert
 (let ((?x127287 (+ (ite (and (<= 2_y 17) (>= (+ 2_y 5) 17)) 3 0))))
 (<= ?x127287 14)))
(assert
 (let ((?x9103 (+ (ite (and (<= 3_y 17) (>= (+ 3_y 6) 17)) 3 0))))
 (<= ?x9103 14)))
(assert
 (let ((?x127625 (+ (ite (and (<= 4_y 17) (>= (+ 4_y 7) 17)) 3 0))))
 (<= ?x127625 14)))
(assert
 (let ((?x124484 (+ (ite (and (<= 5_y 17) (>= (+ 5_y 8) 17)) 3 0))))
 (<= ?x124484 14)))
(assert
 (let ((?x128466 (+ (ite (and (<= 6_y 17) (>= (+ 6_y 9) 17)) 3 0))))
 (<= ?x128466 14)))
(assert
 (let ((?x20513 (+ (ite (and (<= 7_y 17) (>= (+ 7_y 4) 17)) 5 0))))
 (<= ?x20513 14)))
(assert
 (let ((?x126638 (+ (ite (and (<= 8_y 17) (>= (+ 8_y 10) 17)) 5 0))))
 (<= ?x126638 14)))
(assert
 (let ((?x128106 (+ (ite (and (<= 0_y 18) (>= (+ 0_y 3) 18)) 3 0))))
 (<= ?x128106 14)))
(assert
 (let ((?x128626 (+ (ite (and (<= 1_y 18) (>= (+ 1_y 4) 18)) 3 0))))
 (<= ?x128626 14)))
(assert
 (let ((?x127110 (+ (ite (and (<= 2_y 18) (>= (+ 2_y 5) 18)) 3 0))))
 (<= ?x127110 14)))
(assert
 (let ((?x126750 (+ (ite (and (<= 3_y 18) (>= (+ 3_y 6) 18)) 3 0))))
 (<= ?x126750 14)))
(assert
 (let ((?x126891 (+ (ite (and (<= 4_y 18) (>= (+ 4_y 7) 18)) 3 0))))
 (<= ?x126891 14)))
(assert
 (let ((?x14822 (+ (ite (and (<= 5_y 18) (>= (+ 5_y 8) 18)) 3 0))))
 (<= ?x14822 14)))
(assert
 (let ((?x126927 (+ (ite (and (<= 6_y 18) (>= (+ 6_y 9) 18)) 3 0))))
 (<= ?x126927 14)))
(assert
 (let ((?x127906 (+ (ite (and (<= 7_y 18) (>= (+ 7_y 4) 18)) 5 0))))
 (<= ?x127906 14)))
(assert
 (let ((?x127252 (+ (ite (and (<= 8_y 18) (>= (+ 8_y 10) 18)) 5 0))))
 (<= ?x127252 14)))
(assert
 (let ((?x127899 (+ (ite (and (<= 0_x 0) (>= (+ 0_x 3) 0)) 3 0))))
 (<= ?x127899 makespan)))
(assert
 (let ((?x128497 (+ (ite (and (<= 1_x 0) (>= (+ 1_x 3) 0)) 4 0))))
 (<= ?x128497 makespan)))
(assert
 (let ((?x128002 (+ (ite (and (<= 2_x 0) (>= (+ 2_x 3) 0)) 5 0))))
 (<= ?x128002 makespan)))
(assert
 (let ((?x126566 (+ (ite (and (<= 3_x 0) (>= (+ 3_x 3) 0)) 6 0))))
 (<= ?x126566 makespan)))
(assert
 (let ((?x128687 (+ (ite (and (<= 4_x 0) (>= (+ 4_x 3) 0)) 7 0))))
 (<= ?x128687 makespan)))
(assert
 (let ((?x127011 (+ (ite (and (<= 5_x 0) (>= (+ 5_x 3) 0)) 8 0))))
 (<= ?x127011 makespan)))
(assert
 (let ((?x127366 (+ (ite (and (<= 6_x 0) (>= (+ 6_x 3) 0)) 9 0))))
 (<= ?x127366 makespan)))
(assert
 (let ((?x127646 (+ (ite (and (<= 7_x 0) (>= (+ 7_x 5) 0)) 4 0))))
 (<= ?x127646 makespan)))
(assert
 (let ((?x127944 (+ (ite (and (<= 8_x 0) (>= (+ 8_x 5) 0)) 10 0))))
 (<= ?x127944 makespan)))
(assert
 (let ((?x128298 (+ (ite (and (<= 0_x 1) (>= (+ 0_x 3) 1)) 3 0))))
 (<= ?x128298 makespan)))
(assert
 (let ((?x124309 (+ (ite (and (<= 1_x 1) (>= (+ 1_x 3) 1)) 4 0))))
 (<= ?x124309 makespan)))
(assert
 (let ((?x128226 (+ (ite (and (<= 2_x 1) (>= (+ 2_x 3) 1)) 5 0))))
 (<= ?x128226 makespan)))
(assert
 (let ((?x129098 (+ (ite (and (<= 3_x 1) (>= (+ 3_x 3) 1)) 6 0))))
 (<= ?x129098 makespan)))
(assert
 (let ((?x128567 (+ (ite (and (<= 4_x 1) (>= (+ 4_x 3) 1)) 7 0))))
 (<= ?x128567 makespan)))
(assert
 (let ((?x128811 (+ (ite (and (<= 5_x 1) (>= (+ 5_x 3) 1)) 8 0))))
 (<= ?x128811 makespan)))
(assert
 (let ((?x127275 (+ (ite (and (<= 6_x 1) (>= (+ 6_x 3) 1)) 9 0))))
 (<= ?x127275 makespan)))
(assert
 (let ((?x128007 (+ (ite (and (<= 7_x 1) (>= (+ 7_x 5) 1)) 4 0))))
 (<= ?x128007 makespan)))
(assert
 (let ((?x128273 (+ (ite (and (<= 8_x 1) (>= (+ 8_x 5) 1)) 10 0))))
 (<= ?x128273 makespan)))
(assert
 (let ((?x126653 (+ (ite (and (<= 0_x 2) (>= (+ 0_x 3) 2)) 3 0))))
 (<= ?x126653 makespan)))
(assert
 (let ((?x128141 (+ (ite (and (<= 1_x 2) (>= (+ 1_x 3) 2)) 4 0))))
 (<= ?x128141 makespan)))
(assert
 (let ((?x126554 (+ (ite (and (<= 2_x 2) (>= (+ 2_x 3) 2)) 5 0))))
 (<= ?x126554 makespan)))
(assert
 (let ((?x129108 (+ (ite (and (<= 3_x 2) (>= (+ 3_x 3) 2)) 6 0))))
 (<= ?x129108 makespan)))
(assert
 (let ((?x126951 (+ (ite (and (<= 4_x 2) (>= (+ 4_x 3) 2)) 7 0))))
 (<= ?x126951 makespan)))
(assert
 (let ((?x127156 (+ (ite (and (<= 5_x 2) (>= (+ 5_x 3) 2)) 8 0))))
 (<= ?x127156 makespan)))
(assert
 (let ((?x128703 (+ (ite (and (<= 6_x 2) (>= (+ 6_x 3) 2)) 9 0))))
 (<= ?x128703 makespan)))
(assert
 (let ((?x128654 (+ (ite (and (<= 7_x 2) (>= (+ 7_x 5) 2)) 4 0))))
 (<= ?x128654 makespan)))
(assert
 (let ((?x123140 (+ (ite (and (<= 8_x 2) (>= (+ 8_x 5) 2)) 10 0))))
 (<= ?x123140 makespan)))
(assert
 (let ((?x123188 (+ (ite (and (<= 0_x 3) (>= (+ 0_x 3) 3)) 3 0))))
 (<= ?x123188 makespan)))
(assert
 (let ((?x123235 (+ (ite (and (<= 1_x 3) (>= (+ 1_x 3) 3)) 4 0))))
 (<= ?x123235 makespan)))
(assert
 (let ((?x123281 (+ (ite (and (<= 2_x 3) (>= (+ 2_x 3) 3)) 5 0))))
 (<= ?x123281 makespan)))
(assert
 (let ((?x123328 (+ (ite (and (<= 3_x 3) (>= (+ 3_x 3) 3)) 6 0))))
 (<= ?x123328 makespan)))
(assert
 (let ((?x123375 (+ (ite (and (<= 4_x 3) (>= (+ 4_x 3) 3)) 7 0))))
 (<= ?x123375 makespan)))
(assert
 (let ((?x123401 (+ (ite (and (<= 5_x 3) (>= (+ 5_x 3) 3)) 8 0))))
 (<= ?x123401 makespan)))
(assert
 (let ((?x123444 (+ (ite (and (<= 6_x 3) (>= (+ 6_x 3) 3)) 9 0))))
 (<= ?x123444 makespan)))
(assert
 (let ((?x123491 (+ (ite (and (<= 7_x 3) (>= (+ 7_x 5) 3)) 4 0))))
 (<= ?x123491 makespan)))
(assert
 (let ((?x123540 (+ (ite (and (<= 8_x 3) (>= (+ 8_x 5) 3)) 10 0))))
 (<= ?x123540 makespan)))
(assert
 (let ((?x123588 (+ (ite (and (<= 0_x 4) (>= (+ 0_x 3) 4)) 3 0))))
 (<= ?x123588 makespan)))
(assert
 (let ((?x123619 (+ (ite (and (<= 1_x 4) (>= (+ 1_x 3) 4)) 4 0))))
 (<= ?x123619 makespan)))
(assert
 (let ((?x123669 (+ (ite (and (<= 2_x 4) (>= (+ 2_x 3) 4)) 5 0))))
 (<= ?x123669 makespan)))
(assert
 (let ((?x123719 (+ (ite (and (<= 3_x 4) (>= (+ 3_x 3) 4)) 6 0))))
 (<= ?x123719 makespan)))
(assert
 (let ((?x123767 (+ (ite (and (<= 4_x 4) (>= (+ 4_x 3) 4)) 7 0))))
 (<= ?x123767 makespan)))
(assert
 (let ((?x123792 (+ (ite (and (<= 5_x 4) (>= (+ 5_x 3) 4)) 8 0))))
 (<= ?x123792 makespan)))
(assert
 (let ((?x123840 (+ (ite (and (<= 6_x 4) (>= (+ 6_x 3) 4)) 9 0))))
 (<= ?x123840 makespan)))
(assert
 (let ((?x123888 (+ (ite (and (<= 7_x 4) (>= (+ 7_x 5) 4)) 4 0))))
 (<= ?x123888 makespan)))
(assert
 (let ((?x123936 (+ (ite (and (<= 8_x 4) (>= (+ 8_x 5) 4)) 10 0))))
 (<= ?x123936 makespan)))
(assert
 (let ((?x123984 (+ (ite (and (<= 0_x 5) (>= (+ 0_x 3) 5)) 3 0))))
 (<= ?x123984 makespan)))
(assert
 (let ((?x124032 (+ (ite (and (<= 1_x 5) (>= (+ 1_x 3) 5)) 4 0))))
 (<= ?x124032 makespan)))
(assert
 (let ((?x124080 (+ (ite (and (<= 2_x 5) (>= (+ 2_x 3) 5)) 5 0))))
 (<= ?x124080 makespan)))
(assert
 (let ((?x124128 (+ (ite (and (<= 3_x 5) (>= (+ 3_x 3) 5)) 6 0))))
 (<= ?x124128 makespan)))
(assert
 (let ((?x124178 (+ (ite (and (<= 4_x 5) (>= (+ 4_x 3) 5)) 7 0))))
 (<= ?x124178 makespan)))
(assert
 (let ((?x124226 (+ (ite (and (<= 5_x 5) (>= (+ 5_x 3) 5)) 8 0))))
 (<= ?x124226 makespan)))
(assert
 (let ((?x124274 (+ (ite (and (<= 6_x 5) (>= (+ 6_x 3) 5)) 9 0))))
 (<= ?x124274 makespan)))
(assert
 (let ((?x129411 (+ (ite (and (<= 7_x 5) (>= (+ 7_x 5) 5)) 4 0))))
 (<= ?x129411 makespan)))
(assert
 (let ((?x20553 (+ (ite (and (<= 8_x 5) (>= (+ 8_x 5) 5)) 10 0))))
 (<= ?x20553 makespan)))
(assert
 (let ((?x129167 (+ (ite (and (<= 0_x 6) (>= (+ 0_x 3) 6)) 3 0))))
 (<= ?x129167 makespan)))
(assert
 (let ((?x129123 (+ (ite (and (<= 1_x 6) (>= (+ 1_x 3) 6)) 4 0))))
 (<= ?x129123 makespan)))
(assert
 (let ((?x129075 (+ (ite (and (<= 2_x 6) (>= (+ 2_x 3) 6)) 5 0))))
 (<= ?x129075 makespan)))
(assert
 (let ((?x3984 (+ (ite (and (<= 3_x 6) (>= (+ 3_x 3) 6)) 6 0))))
 (<= ?x3984 makespan)))
(assert
 (let ((?x128942 (+ (ite (and (<= 4_x 6) (>= (+ 4_x 3) 6)) 7 0))))
 (<= ?x128942 makespan)))
(assert
 (let ((?x128878 (+ (ite (and (<= 5_x 6) (>= (+ 5_x 3) 6)) 8 0))))
 (<= ?x128878 makespan)))
(assert
 (let ((?x128832 (+ (ite (and (<= 6_x 6) (>= (+ 6_x 3) 6)) 9 0))))
 (<= ?x128832 makespan)))
(assert
 (let ((?x129326 (+ (ite (and (<= 7_x 6) (>= (+ 7_x 5) 6)) 4 0))))
 (<= ?x129326 makespan)))
(assert
 (let ((?x126370 (+ (ite (and (<= 8_x 6) (>= (+ 8_x 5) 6)) 10 0))))
 (<= ?x126370 makespan)))
(assert
 (let ((?x126313 (+ (ite (and (<= 0_x 7) (>= (+ 0_x 3) 7)) 3 0))))
 (<= ?x126313 makespan)))
(assert
 (let ((?x126226 (+ (ite (and (<= 1_x 7) (>= (+ 1_x 3) 7)) 4 0))))
 (<= ?x126226 makespan)))
(assert
 (let ((?x126130 (+ (ite (and (<= 2_x 7) (>= (+ 2_x 3) 7)) 5 0))))
 (<= ?x126130 makespan)))
(assert
 (let ((?x126033 (+ (ite (and (<= 3_x 7) (>= (+ 3_x 3) 7)) 6 0))))
 (<= ?x126033 makespan)))
(assert
 (let ((?x125937 (+ (ite (and (<= 4_x 7) (>= (+ 4_x 3) 7)) 7 0))))
 (<= ?x125937 makespan)))
(assert
 (let ((?x125823 (+ (ite (and (<= 5_x 7) (>= (+ 5_x 3) 7)) 8 0))))
 (<= ?x125823 makespan)))
(assert
 (let ((?x125691 (+ (ite (and (<= 6_x 7) (>= (+ 6_x 3) 7)) 9 0))))
 (<= ?x125691 makespan)))
(assert
 (let ((?x125618 (+ (ite (and (<= 7_x 7) (>= (+ 7_x 5) 7)) 4 0))))
 (<= ?x125618 makespan)))
(assert
 (let ((?x125523 (+ (ite (and (<= 8_x 7) (>= (+ 8_x 5) 7)) 10 0))))
 (<= ?x125523 makespan)))
(assert
 (let ((?x125427 (+ (ite (and (<= 0_x 8) (>= (+ 0_x 3) 8)) 3 0))))
 (<= ?x125427 makespan)))
(assert
 (let ((?x125339 (+ (ite (and (<= 1_x 8) (>= (+ 1_x 3) 8)) 4 0))))
 (<= ?x125339 makespan)))
(assert
 (let ((?x125243 (+ (ite (and (<= 2_x 8) (>= (+ 2_x 3) 8)) 5 0))))
 (<= ?x125243 makespan)))
(assert
 (let ((?x125161 (+ (ite (and (<= 3_x 8) (>= (+ 3_x 3) 8)) 6 0))))
 (<= ?x125161 makespan)))
(assert
 (let ((?x125065 (+ (ite (and (<= 4_x 8) (>= (+ 4_x 3) 8)) 7 0))))
 (<= ?x125065 makespan)))
(assert
 (let ((?x124977 (+ (ite (and (<= 5_x 8) (>= (+ 5_x 3) 8)) 8 0))))
 (<= ?x124977 makespan)))
(assert
 (let ((?x124894 (+ (ite (and (<= 6_x 8) (>= (+ 6_x 3) 8)) 9 0))))
 (<= ?x124894 makespan)))
(assert
 (let ((?x124805 (+ (ite (and (<= 7_x 8) (>= (+ 7_x 5) 8)) 4 0))))
 (<= ?x124805 makespan)))
(assert
 (let ((?x124723 (+ (ite (and (<= 8_x 8) (>= (+ 8_x 5) 8)) 10 0))))
 (<= ?x124723 makespan)))
(assert
 (let ((?x124633 (+ (ite (and (<= 0_x 9) (>= (+ 0_x 3) 9)) 3 0))))
 (<= ?x124633 makespan)))
(assert
 (let ((?x124541 (+ (ite (and (<= 1_x 9) (>= (+ 1_x 3) 9)) 4 0))))
 (<= ?x124541 makespan)))
(assert
 (let ((?x124445 (+ (ite (and (<= 2_x 9) (>= (+ 2_x 3) 9)) 5 0))))
 (<= ?x124445 makespan)))
(assert
 (let ((?x126470 (+ (ite (and (<= 3_x 9) (>= (+ 3_x 3) 9)) 6 0))))
 (<= ?x126470 makespan)))
(assert
 (let ((?x125063 (+ (ite (and (<= 4_x 9) (>= (+ 4_x 3) 9)) 7 0))))
 (<= ?x125063 makespan)))
(assert
 (let ((?x126327 (+ (ite (and (<= 5_x 9) (>= (+ 5_x 3) 9)) 8 0))))
 (<= ?x126327 makespan)))
(assert
 (let ((?x126239 (+ (ite (and (<= 6_x 9) (>= (+ 6_x 3) 9)) 9 0))))
 (<= ?x126239 makespan)))
(assert
 (let ((?x126190 (+ (ite (and (<= 7_x 9) (>= (+ 7_x 5) 9)) 4 0))))
 (<= ?x126190 makespan)))
(assert
 (let ((?x126055 (+ (ite (and (<= 8_x 9) (>= (+ 8_x 5) 9)) 10 0))))
 (<= ?x126055 makespan)))
(assert
 (let ((?x126045 (+ (ite (and (<= 0_x 10) (>= (+ 0_x 3) 10)) 3 0))))
 (<= ?x126045 makespan)))
(assert
 (let ((?x125910 (+ (ite (and (<= 1_x 10) (>= (+ 1_x 3) 10)) 4 0))))
 (<= ?x125910 makespan)))
(assert
 (let ((?x125903 (+ (ite (and (<= 2_x 10) (>= (+ 2_x 3) 10)) 5 0))))
 (<= ?x125903 makespan)))
(assert
 (let ((?x125825 (+ (ite (and (<= 3_x 10) (>= (+ 3_x 3) 10)) 6 0))))
 (<= ?x125825 makespan)))
(assert
 (let ((?x125706 (+ (ite (and (<= 4_x 10) (>= (+ 4_x 3) 10)) 7 0))))
 (<= ?x125706 makespan)))
(assert
 (let ((?x125681 (+ (ite (and (<= 5_x 10) (>= (+ 5_x 3) 10)) 8 0))))
 (<= ?x125681 makespan)))
(assert
 (let ((?x125583 (+ (ite (and (<= 6_x 10) (>= (+ 6_x 3) 10)) 9 0))))
 (<= ?x125583 makespan)))
(assert
 (let ((?x125538 (+ (ite (and (<= 7_x 10) (>= (+ 7_x 5) 10)) 4 0))))
 (<= ?x125538 makespan)))
(assert
 (let ((?x125440 (+ (ite (and (<= 8_x 10) (>= (+ 8_x 5) 10)) 10 0))))
 (<= ?x125440 makespan)))
(assert
 (let ((?x125331 (+ (ite (and (<= 0_x 11) (>= (+ 0_x 3) 11)) 3 0))))
 (<= ?x125331 makespan)))
(assert
 (let ((?x125305 (+ (ite (and (<= 1_x 11) (>= (+ 1_x 3) 11)) 4 0))))
 (<= ?x125305 makespan)))
(assert
 (let ((?x125185 (+ (ite (and (<= 2_x 11) (>= (+ 2_x 3) 11)) 5 0))))
 (<= ?x125185 makespan)))
(assert
 (let ((?x125175 (+ (ite (and (<= 3_x 11) (>= (+ 3_x 3) 11)) 6 0))))
 (<= ?x125175 makespan)))
(assert
 (let ((?x125022 (+ (ite (and (<= 4_x 11) (>= (+ 4_x 3) 11)) 7 0))))
 (<= ?x125022 makespan)))
(assert
 (let ((?x125014 (+ (ite (and (<= 5_x 11) (>= (+ 5_x 3) 11)) 8 0))))
 (<= ?x125014 makespan)))
(assert
 (let ((?x124883 (+ (ite (and (<= 6_x 11) (>= (+ 6_x 3) 11)) 9 0))))
 (<= ?x124883 makespan)))
(assert
 (let ((?x129386 (+ (ite (and (<= 7_x 11) (>= (+ 7_x 5) 11)) 4 0))))
 (<= ?x129386 makespan)))
(assert
 (let ((?x124632 (+ (ite (and (<= 8_x 11) (>= (+ 8_x 5) 11)) 10 0))))
 (<= ?x124632 makespan)))
(assert
 (let ((?x124419 (+ (ite (and (<= 0_x 12) (>= (+ 0_x 3) 12)) 3 0))))
 (<= ?x124419 makespan)))
(assert
 (let ((?x124307 (+ (ite (and (<= 1_x 12) (>= (+ 1_x 3) 12)) 4 0))))
 (<= ?x124307 makespan)))
(assert
 (let ((?x123103 (+ (ite (and (<= 2_x 12) (>= (+ 2_x 3) 12)) 5 0))))
 (<= ?x123103 makespan)))
(assert
 (let ((?x123079 (+ (ite (and (<= 3_x 12) (>= (+ 3_x 3) 12)) 6 0))))
 (<= ?x123079 makespan)))
(assert
 (let ((?x123055 (+ (ite (and (<= 4_x 12) (>= (+ 4_x 3) 12)) 7 0))))
 (<= ?x123055 makespan)))
(assert
 (let ((?x123031 (+ (ite (and (<= 5_x 12) (>= (+ 5_x 3) 12)) 8 0))))
 (<= ?x123031 makespan)))
(assert
 (let ((?x123007 (+ (ite (and (<= 6_x 12) (>= (+ 6_x 3) 12)) 9 0))))
 (<= ?x123007 makespan)))
(assert
 (let ((?x122983 (+ (ite (and (<= 7_x 12) (>= (+ 7_x 5) 12)) 4 0))))
 (<= ?x122983 makespan)))
(assert
 (let ((?x122959 (+ (ite (and (<= 8_x 12) (>= (+ 8_x 5) 12)) 10 0))))
 (<= ?x122959 makespan)))
(assert
 (let ((?x122935 (+ (ite (and (<= 0_x 13) (>= (+ 0_x 3) 13)) 3 0))))
 (<= ?x122935 makespan)))
(assert
 (let ((?x122911 (+ (ite (and (<= 1_x 13) (>= (+ 1_x 3) 13)) 4 0))))
 (<= ?x122911 makespan)))
(assert
 (let ((?x122887 (+ (ite (and (<= 2_x 13) (>= (+ 2_x 3) 13)) 5 0))))
 (<= ?x122887 makespan)))
(assert
 (let ((?x122863 (+ (ite (and (<= 3_x 13) (>= (+ 3_x 3) 13)) 6 0))))
 (<= ?x122863 makespan)))
(assert
 (let ((?x122839 (+ (ite (and (<= 4_x 13) (>= (+ 4_x 3) 13)) 7 0))))
 (<= ?x122839 makespan)))
(assert
 (let ((?x122815 (+ (ite (and (<= 5_x 13) (>= (+ 5_x 3) 13)) 8 0))))
 (<= ?x122815 makespan)))
(assert
 (let ((?x122791 (+ (ite (and (<= 6_x 13) (>= (+ 6_x 3) 13)) 9 0))))
 (<= ?x122791 makespan)))
(assert
 (let ((?x122767 (+ (ite (and (<= 7_x 13) (>= (+ 7_x 5) 13)) 4 0))))
 (<= ?x122767 makespan)))
(assert
 (let ((?x122743 (+ (ite (and (<= 8_x 13) (>= (+ 8_x 5) 13)) 10 0))))
 (<= ?x122743 makespan)))
(check-sat)
